solution status: optimal solution found
objective value:                     148659.695193871
d11(0,0)                                            1 	(obj:0)
d11(1,1)                                            1 	(obj:0)
d11(1,2)                                            1 	(obj:0)
d11(3,7)                                            1 	(obj:0)
d11(3,9)                                            1 	(obj:0)
d11(3,11)                                           1 	(obj:0)
d12(2,4)                                            1 	(obj:0)
d12(2,6)                                            1 	(obj:0)
d12(3,8)                                            1 	(obj:0)
d12(3,10)                                           1 	(obj:0)
d12(3,12)                                           1 	(obj:0)
d12(3,14)                                           1 	(obj:0)
d21(2,3)                                            1 	(obj:0)
d21(3,7)                                            1 	(obj:0)
d21(3,8)                                            1 	(obj:0)
d21(3,9)                                            1 	(obj:0)
WB(2)                                3315.65537776224 	(obj:0)
y2(2,4)                              1385.48851144896 	(obj:0)
y2(2,6)                              1385.48851144896 	(obj:0)
y2(3,8)                              1385.48851144894 	(obj:0)
y2(3,10)                             1385.48851144894 	(obj:0)
y2(3,12)                             1385.48851144895 	(obj:0)
y2(3,14)                             1385.48851144894 	(obj:0)
STE(1,1)                             4137.75010111062 	(obj:0)
STE(0,0)                                        12600 	(obj:0)
STE(1,2)                             5795.99999999944 	(obj:0)
STE(2,3)                             3129.75010111062 	(obj:0)
STE(2,4)                             4445.96418698713 	(obj:0)
STE(2,5)                             4787.99999999944 	(obj:0)
STE(2,6)                             6104.21408587595 	(obj:0)
STE(3,7)                             2121.75010111062 	(obj:0)
STE(3,8)                             3437.96418698712 	(obj:0)
STE(3,9)                             3437.96418698707 	(obj:0)
STE(3,10)                            4754.17827286363 	(obj:0)
STE(3,11)                            3779.99999999944 	(obj:0)
STE(3,12)                            5096.21408587594 	(obj:0)
STE(3,13)                            5096.21408587595 	(obj:0)
STE(3,14)                            6412.42817175244 	(obj:0)
AVE(2)                               3315.65537776224 	(obj:0)
WB(3)                                3315.65799770399 	(obj:0)
y1(1,1)                              6708.82490900044 	(obj:0)
y1(1,2)                              5216.40000000051 	(obj:0)
AVE(3)                               3315.65799770399 	(obj:0)
WB(1)                                3248.33172520918 	(obj:0)
BG(1)                                 9519.1496418378 	(obj:10)
BG(2)                                2673.40993877551 	(obj:10)
BG(3)                                2673.40993877515 	(obj:10)
AVE(1)                               3248.33172520918 	(obj:0)
